20
0
16
0
30
26
66
0
50
56
25
35
33
22
20
34
0
44
0
34
45
30
17
78
19
0
0
18
23
45
38
22
35
0
29
19
47
28
20
40
0
35
0
36
0
34
20
37
25
26
38
49
54
21
65
27
66
24
20
29
27
40
48
24
34
0
17
18
20
44
31
46
17
31
29
68
0
0
0
25
44
25
32
21
18
32
23
26
23
42
26
20
27
0
21
28
0
29
44
0
